p cnf 30 45
-18 28 23 0
-16 8 -23 0
18 -4 30 0
22 24 16 0
-15 4 -30 0
16 -22 28 0
19 -18 -4 0
-25 1 28 0
-7 -5 -15 0
-29 18 26 0
-29 -27 -30 0
4 3 -2 0
-14 -11 12 0
15 21 26 0
-29 9 20 0
19 16 17 0
26 14 -3 0
-7 15 5 0
17 6 15 0
-28 1 12 0
21 -23 28 0
16 18 11 0
16 19 -9 0
-22 12 17 0
14 7 9 0
30 16 -14 0
-17 -15 -6 0
11 -23 -21 0
-21 -30 -15 0
-3 20 8 0
20 6 -18 0
20 -1 -3 0
26 12 13 0
7 1 5 0
-22 -19 -24 0
-16 8 9 0
-24 11 19 0
26 -21 11 0
22 11 -3 0
-14 -21 22 0
-12 -18 -21 0
25 7 -15 0
-27 -5 -18 0
13 30 25 0
-8 -14 28 0
